data;
param nombreJob := 5;
param nombreRessource := 3;
param duree := 1 3 2 8 3 3 4 8 5 8;
param capaciteRessource := 1 6 2 12 3 13;
param besoinRessource : 1 2 3 :=
                    1   3 2 1
                    2   1 7 10
                    3   1 3 9
                    4   2 8 9
                    5   2 6 3;
end;

